p cnf 98 339
4 2 0
4 -3 0
-2 3 -4 0
5 1 0
5 -4 0
-1 4 -5 0
-8 6 0
-8 -7 0
-6 7 8 0
9 -2 0
9 -8 0
2 8 -9 0
-9 10 -11 0
9 -10 -11 0
-9 -10 11 0
9 10 11 0
12 -10 0
12 -6 0
10 6 -12 0
7 4 -13 0
-7 -4 -13 0
7 -4 13 0
-7 4 13 0
-14 -13 0
-14 1 0
13 -1 14 0
9 -14 -15 0
-9 14 -15 0
9 14 15 0
-9 -14 15 0
-12 -15 -16 0
12 15 -16 0
-12 15 16 0
12 -15 16 0
17 -8 -18 0
-17 8 -18 0
17 8 18 0
-17 -8 18 0
20 10 0
20 19 0
-10 -19 -20 0
-6 -20 -21 0
6 20 -21 0
-6 20 21 0
6 -20 21 0
-22 18 0
-22 21 0
-18 -21 22 0
-14 18 -23 0
14 -18 -23 0
-14 -18 23 0
14 18 23 0
25 -24 0
25 -13 0
24 13 -25 0
-26 -23 0
-26 25 0
23 -25 26 0
-27 -26 0
-27 -8 0
26 8 27 0
28 -22 0
28 27 0
22 -27 -28 0
-29 16 0
-29 28 0
-16 -28 29 0
-30 11 0
-30 29 0
-11 -29 30 0
31 -7 0
31 20 0
7 -20 -31 0
-33 -32 0
-33 17 0
32 -17 33 0
34 33 0
34 17 0
-33 -17 -34 0
13 -34 -35 0
-13 34 -35 0
13 34 35 0
-13 -34 35 0
36 35 0
36 35 0
-35 -36 0
-31 -36 -37 0
31 36 -37 0
-31 36 37 0
31 -36 37 0
32 38 -39 0
-32 -38 -39 0
32 -38 39 0
-32 38 39 0
-40 39 0
-40 26 0
-39 -26 40 0
41 37 0
41 -40 0
-37 40 -41 0
-42 30 0
-42 41 0
-30 -41 42 0
43 -24 0
43 -2 0
24 2 -43 0
44 43 0
44 20 0
-43 -20 -44 0
44 17 -45 0
-44 -17 -45 0
44 -17 45 0
-44 17 45 0
46 -36 0
46 -34 0
36 34 -46 0
47 45 0
47 -46 0
-45 46 -47 0
49 34 0
49 48 0
-34 -48 -49 0
-50 -14 0
-50 49 0
14 -49 50 0
-51 -33 0
-51 -50 0
33 50 51 0
-52 -10 0
-52 48 0
10 -48 52 0
-53 51 0
-53 52 0
-51 -52 53 0
-50 23 -54 0
50 -23 -54 0
-50 -23 54 0
50 23 54 0
-55 -26 0
-55 -31 0
26 31 55 0
56 54 0
56 -55 0
-54 55 -56 0
-57 53 0
-57 56 0
-53 -56 57 0
32 -8 -58 0
-32 8 -58 0
32 8 58 0
-32 -8 58 0
-59 -49 0
-59 -49 0
49 59 0
-21 59 -60 0
21 -59 -60 0
-21 -59 60 0
21 59 60 0
61 -51 0
61 -36 0
51 36 -61 0
-62 60 0
-62 -61 0
-60 61 62 0
58 -62 -63 0
-58 62 -63 0
58 62 63 0
-58 -62 63 0
32 19 -64 0
-32 -19 -64 0
32 -19 64 0
-32 19 64 0
-65 -31 0
-65 -1 0
31 1 65 0
66 64 0
66 65 0
-64 -65 -66 0
67 3 0
67 -66 0
-3 66 -67 0
69 -4 0
69 -68 0
4 68 -69 0
70 67 0
70 69 0
-67 -69 -70 0
63 70 -71 0
-63 -70 -71 0
63 -70 71 0
-63 70 71 0
57 -71 -72 0
-57 71 -72 0
57 71 72 0
-57 -71 72 0
14 -32 -73 0
-14 32 -73 0
14 32 73 0
-14 -32 73 0
-74 -4 0
-74 73 0
4 -73 74 0
38 -74 -75 0
-38 74 -75 0
38 74 75 0
-38 -74 75 0
76 -51 0
76 14 0
51 -14 -76 0
77 -75 0
77 -76 0
75 76 -77 0
-32 -78 -79 0
32 78 -79 0
-32 78 79 0
32 -78 79 0
34 -73 -80 0
-34 73 -80 0
34 73 80 0
-34 -73 80 0
79 -80 -81 0
-79 80 -81 0
79 80 81 0
-79 -80 81 0
82 -77 0
82 -81 0
77 81 -82 0
-83 -72 0
-83 -82 0
72 82 83 0
84 47 0
84 -83 0
-47 83 -84 0
42 84 -85 0
-42 -84 -85 0
42 -84 85 0
-42 84 85 0
5 -85 -86 0
-5 85 -86 0
5 85 86 0
-5 -85 86 0
87 50 0
87 -65 0
-50 65 -87 0
-65 -22 -88 0
65 22 -88 0
-65 22 88 0
65 -22 88 0
-89 87 0
-89 88 0
-87 -88 89 0
-10 -65 -90 0
10 65 -90 0
-10 65 90 0
10 -65 90 0
-91 -20 0
-91 -43 0
20 43 91 0
92 -90 0
92 -91 0
90 91 -92 0
93 89 0
93 -92 0
-89 92 -93 0
-94 3 0
-94 -17 0
-3 17 94 0
-93 -94 -95 0
93 94 -95 0
-93 94 95 0
93 -94 95 0
-86 -95 -96 0
86 95 -96 0
-86 95 96 0
86 -95 96 0
-97 33 0
-97 -78 0
-33 78 97 0
96 -97 -98 0
-96 97 -98 0
96 97 98 0
-96 -97 98 0
53 -64 73 -86 0
45 7 -71 53 90 0
-54 -25 12 36 -85 60 0
-54 -74 0
-58 98 19 2 -28 0
-13 -18 -66 46 -92 0
41 2 0
-57 51 15 -81 21 -24 0
-93 84 33 -69 -76 -61 0
18 -22 5 41 8 9 0
-27 -60 37 -6 0
13 19 0
-20 -1 -18 -64 0
69 -57 0
-85 80 54 -57 21 78 0
-16 19 -26 0
-6 46 -81 0
-4 58 0
22 41 -90 85 -44 0
8 -65 31 0
30 -11 78 77 0
5 20 48 -32 21 -18 0
-47 80 -3 -86 18 76 0
-43 75 80 -56 25 -54 0
-20 -65 51 82 -76 0
95 80 0
54 -39 13 32 0
18 -86 -21 64 0
-1 93 33 0
85 11 0
-58 -41 0
74 -58 98 -69 -80 0
-54 72 81 -50 32 0
78 -5 82 6 0
-94 22 0
-53 -56 0
84 79 29 -78 -83 0
52 9 70 -31 0
72 40 -3 -47 0
20 77 57 -38 25 0
-33 3 6 38 -91 -54 0
10 97 -13 -8 71 0
26 37 -72 -45 0
53 57 -1 67 60 0
82 -3 -17 0
-10 -37 43 6 71 90 0
33 -82 -65 0
38 36 56 0
-89 -63 -57 -33 0
-55 47 42 0
-74 64 -45 40 67 0
57 22 -30 0
5 -19 44 84 12 81 0
86 62 -31 -25 11 0
2 -49 0
-16 -5 85 -64 31 0
98 0
